Problem:    
Rows:       248
Columns:    89 (72 integer, 72 binary)
Non-zeros:  820
Status:     INTEGER OPTIMAL
Objective:  value = 85.102 (MINimum)

   No.   Row name        Activity     Lower bound   Upper bound
------ ------------    ------------- ------------- -------------
     1 r.5                    85.102             0               
     2 r.6                   -13.004       -481.77               
     3 r.7                   585.102             0               
     4 r.8                  -485.754      -486.074               
     5 r.9                   585.102             0               
     6 r.10                 -479.541      -480.813               
     7 r.11                   85.102             0               
     8 r.12                  -11.395      -481.754               
     9 r.13                   85.102             0               
    10 r.14                 -380.508       -465.61               
    11 r.15                  585.102             0               
    12 r.16                 -433.361      -473.831               
    13 r.17                   85.102             0               
    14 r.18                  1.27203      -482.724               
    15 r.19                  585.102             0               
    16 r.20                  -462.53      -479.776               
    17 r.21                  585.102             0               
    18 r.22                 -459.144      -482.603               
    19 r.23                   85.102             0               
    20 r.24                     0.32      -485.285               
    21 r.25                  585.102             0               
    22 r.26                 -414.898      -458.754               
    23 r.27                   85.102             0               
    24 r.28                 -400.195      -485.297               
    25 r.29                   85.102             0               
    26 r.30                 -373.454      -458.556               
    27 r.31                  585.102             0               
    28 r.32                 -414.898      -484.537               
    29 r.33                  585.102             0               
    30 r.34                  -499.68       -499.68               
    31 r.35                   85.102             0               
    32 r.36                     0.32      -494.574               
    33 r.37                        1             1             = 
    34 r.38                        1             1             = 
    35 r.39                        1             1             = 
    36 r.40                        1             1             = 
    37 r.41                        1             1             = 
    38 r.42                        1             1             = 
    39 r.43                        1             1             = 
    40 r.44                        1             1             = 
    41 r.45                  36.4633       19.1873               
    42 r.46                 -39.4633       -481.77               
    43 r.47                  471.359        18.246               
    44 r.48                 -468.359      -486.074               
    45 r.49                  135.496       34.3898               
    46 r.50                 -135.496       -481.77               
    47 r.51                   49.393        26.169               
    48 r.52                  -49.393      -486.074               
    49 r.53                   17.276        17.276               
    50 r.54                  -17.276       -481.77               
    51 r.55                   20.224        20.224               
    52 r.56                  -20.224      -486.074               
    53 r.57                  56.8601       17.3968               
    54 r.58                 -56.8601       -481.77               
    55 r.59                  483.074        14.715               
    56 r.60                 -483.074      -486.074               
    57 r.61                 -398.894      -455.754               
    58 r.62                 -384.191      -482.297               
    59 r.63                 -432.144      -455.754               
    60 r.64                 -417.441      -482.297               
    61 r.65                   142.55       41.4438               
    62 r.66                  -142.55       -481.77               
    63 r.67                   67.856        15.463               
    64 r.68                  -67.856      -486.074               
    65 r.69                  -16.324       -478.77               
    66 r.70                 -483.074      -483.074               
    67 r.71                  -16.324       -478.77               
    68 r.72                 -483.074      -483.074               
    69 r.73                  463.537       18.2302               
    70 r.74                 -460.537      -480.813               
    71 r.75                   28.641        13.926               
    72 r.76                  -31.641      -481.754               
    73 r.77                  96.0325       34.3898               
    74 r.78                 -96.0325      -480.813               
    75 r.79                   81.034        26.169               
    76 r.80                  -81.034      -481.754               
    77 r.81                  477.813        17.276               
    78 r.82                 -477.813      -480.813               
    79 r.83                   51.865        20.224               
    80 r.84                  -51.865      -481.754               
    81 r.85                  17.3968       17.3968               
    82 r.86                 -17.3968      -480.813               
    83 r.87                   14.715        14.715               
    84 r.88                  -14.715      -481.754               
    85 r.89                  61.6427       41.2459               
    86 r.90                 -61.6427      -480.813               
    87 r.91                    114.2        14.703               
    88 r.92                   -114.2      -481.754               
    89 r.93                 -396.914      -455.556               
    90 r.94                 -438.357      -481.537               
    91 r.95                 -359.059      -455.556               
    92 r.96                 -400.503      -481.537               
    93 r.97                 -476.861      -477.813               
    94 r.98                  -14.715      -478.754               
    95 r.99                 -476.861      -477.813               
    96 r.100                 -14.715      -478.754               
    97 r.101                 367.504       18.2302               
    98 r.102                -364.504       -465.61               
    99 r.103                 447.607        13.926               
   100 r.104                -450.607      -473.831               
   101 r.105                 400.968       19.1873               
   102 r.106                -403.968       -465.61               
   103 r.107                 421.966        18.246               
   104 r.108                -418.966      -473.831               
   105 r.109                 -381.78       -462.61               
   106 r.110                -434.633      -470.831               
   107 r.111                -417.978       -462.61               
   108 r.112                -470.831      -470.831               
   109 r.113                 421.364       17.3968               
   110 r.114                -421.364       -465.61               
   111 r.115                 433.681        14.715               
   112 r.116                -433.681      -473.831               
   113 r.117                  465.61       41.2459               
   114 r.118                 -465.61       -465.61               
   115 r.119                  33.166        14.703               
   116 r.120                 -33.166      -473.831               
   117 r.121                 7.05398      -455.556               
   118 r.122                -34.3898      -481.537               
   119 r.123                -440.093      -455.556               
   120 r.124                -481.537      -481.537               
   121 r.125                -380.828       -462.61               
   122 r.126                -433.681      -470.831               
   123 r.127                -380.828       -462.61               
   124 r.128                -433.681      -470.831               
   125 r.129                 485.724       18.2302               
   126 r.130                -482.724      -482.724               
   127 r.131                 476.776        13.926               
   128 r.132                -479.776      -479.776               
   129 r.133                 19.1873       19.1873               
   130 r.134                -22.1873      -482.724               
   131 r.135                 451.135        18.246               
   132 r.136                -448.135      -479.776               
   133 r.137                 -381.78       -462.61               
   134 r.138                -434.633      -470.831               
   135 r.139                -417.978       -462.61               
   136 r.140                -470.831      -470.831               
   137 r.141                 39.5841       17.3968               
   138 r.142                -39.5841      -482.724               
   139 r.143                  462.85        14.715               
   140 r.144                 -462.85      -479.776               
   141 r.145                   83.83       41.2459               
   142 r.146                  -83.83      -482.724               
   143 r.147                  62.335        14.703               
   144 r.148                 -62.335      -479.776               
   145 r.149                -374.726      -455.556               
   146 r.150                 -416.17      -481.537               
   147 r.151                -410.924      -455.556               
   148 r.152                -452.368      -481.537               
   149 r.153                0.952033      -476.724               
   150 r.154                 -462.85      -473.776               
   151 r.155                0.952033      -476.724               
   152 r.156                 -462.85      -473.776               
   153 r.157                  446.14       18.2302               
   154 r.158                 -443.14      -482.603               
   155 r.159                  13.926        13.926               
   156 r.160                 -16.926      -485.285               
   157 r.161                 479.603       19.1873               
   158 r.162                -482.603      -482.603               
   159 r.163                 488.285        18.246               
   160 r.164                -485.285      -485.285               
   161 r.165                 78.6357       34.3898               
   162 r.166                -78.6357      -482.603               
   163 r.167                  66.319        26.169               
   164 r.168                 -66.319      -485.285               
   165 r.169                 460.416        17.276               
   166 r.170                -460.416      -482.603               
   167 r.171                   37.15        20.224               
   168 r.172                  -37.15      -485.285               
   169 r.173                -455.754      -455.754               
   170 r.174                -441.051      -482.297               
   171 r.175                -415.218      -455.754               
   172 r.176                -400.515      -482.297               
   173 r.177                 -414.31      -455.556               
   174 r.178                -455.754      -481.537               
   175 r.179                -373.774      -455.556               
   176 r.180                -415.218      -481.537               
   177 r.181                -459.464      -476.603               
   178 r.182                       0      -479.285               
   179 r.183                -459.464      -476.603               
   180 r.184                       0      -479.285               
   181 r.185                -398.894      -455.754               
   182 r.186                -384.191      -482.297               
   183 r.187                -432.144      -455.754               
   184 r.188                -417.441      -482.297               
   185 r.189                 435.357       19.1873               
   186 r.190                -438.357      -458.754               
   187 r.191                   388.8        18.246               
   188 r.192                  -385.8      -485.297               
   189 r.193                 34.3898       34.3898               
   190 r.194                -34.3898      -458.754               
   191 r.195                 466.834        26.169               
   192 r.196                -466.834      -485.297               
   193 r.197                  416.17        17.276               
   194 r.198                 -416.17      -458.754               
   195 r.199                 437.665        20.224               
   196 r.200                -437.665      -485.297               
   197 r.201                -455.754      -455.754               
   198 r.202                -441.051      -482.297               
   199 r.203                -415.218      -455.754               
   200 r.204                -400.515      -482.297               
   201 r.205                 41.4438       41.4438               
   202 r.206                -41.4438      -458.754               
   203 r.207                 485.297        15.463               
   204 r.208                -485.297      -485.297               
   205 r.209                  360.45       18.2302               
   206 r.210                 -357.45      -458.556               
   207 r.211                 429.144        13.926               
   208 r.212                -432.144      -484.537               
   209 r.213                -396.914      -455.556               
   210 r.214                -438.357      -481.537               
   211 r.215                -359.059      -455.556               
   212 r.216                -400.503      -481.537               
   213 r.217                 7.05398      -455.556               
   214 r.218                -34.3898      -481.537               
   215 r.219                -440.093      -455.556               
   216 r.220                -481.537      -481.537               
   217 r.221                -374.726      -455.556               
   218 r.222                 -416.17      -481.537               
   219 r.223                -410.924      -455.556               
   220 r.224                -452.368      -481.537               
   221 r.225                 -414.31      -455.556               
   222 r.226                -455.754      -481.537               
   223 r.227                -373.774      -455.556               
   224 r.228                -415.218      -481.537               
   225 r.229                 458.556       41.2459               
   226 r.230                -458.556      -458.556               
   227 r.231                  14.703        14.703               
   228 r.232                 -14.703      -484.537               
   229 r.233                 -16.324       -478.77               
   230 r.234                -483.074      -483.074               
   231 r.235                 -16.324       -478.77               
   232 r.236                -483.074      -483.074               
   233 r.237                -476.861      -477.813               
   234 r.238                 -14.715      -478.754               
   235 r.239                -476.861      -477.813               
   236 r.240                 -14.715      -478.754               
   237 r.241                -380.828       -462.61               
   238 r.242                -433.681      -470.831               
   239 r.243                -380.828       -462.61               
   240 r.244                -433.681      -470.831               
   241 r.245                0.952033      -476.724               
   242 r.246                 -462.85      -473.776               
   243 r.247                0.952033      -476.724               
   244 r.248                 -462.85      -473.776               
   245 r.249                -459.464      -476.603               
   246 r.250                       0      -479.285               
   247 r.251                -459.464      -476.603               
   248 r.252                       0      -479.285               

   No. Column name       Activity     Lower bound   Upper bound
------ ------------    ------------- ------------- -------------
     1 tt                     85.102             0               
     2 s_1_1        *              0             0             1 
     3 t_1_1                 101.106             0               
     4 s_1_6        *              1             0             1 
     5 s_2_1        *              1             0             1 
     6 t_2_1                  67.856             0               
     7 s_2_6        *              0             0             1 
     8 s_1_2        *              1             0             1 
     9 t_1_2                 61.6427             0               
    10 s_1_7        *              0             0             1 
    11 s_2_2        *              0             0             1 
    12 t_2_2                  99.497             0               
    13 s_2_7        *              1             0             1 
    14 s_1_3        *              0             0             1 
    15 t_1_3                  465.61             0               
    16 s_2_3        *              1             0             1 
    17 t_2_3                  18.463             0               
    18 s_1_4        *              0             0             1 
    19 t_1_4                   83.83             0               
    20 s_2_4        *              1             0             1 
    21 t_2_4                  47.632             0               
    22 s_1_5        *              1             0             1 
    23 t_1_5                 44.2459             0               
    24 s_2_5        *              0             0             1 
    25 t_2_5                  84.782             0               
    26 t_1_6                       0             0               
    27 t_2_6                 485.297             0               
    28 t_1_7                 458.556             0               
    29 t_2_7                       0             0               
    30 s_1_8        *              1             0             1 
    31 t_1_8                  84.782             0               
    32 s_2_8        *              0             0             1 
    33 t_2_8                  84.782             0               
    34 u_1_1_2      *              0             0             1 
    35 u_2_1_2      *              1             0             1 
    36 u_1_1_3      *              1             0             1 
    37 u_2_1_3      *              0             0             1 
    38 u_1_1_4      *              0             0             1 
    39 u_2_1_4      *              0             0             1 
    40 u_1_1_5      *              0             0             1 
    41 u_2_1_5      *              1             0             1 
    42 u_1_1_7      *              1             0             1 
    43 u_2_1_7      *              0             0             1 
    44 u_1_2_1      *              1             0             1 
    45 u_2_2_1      *              0             0             1 
    46 u_1_2_3      *              1             0             1 
    47 u_2_2_3      *              0             0             1 
    48 u_1_2_4      *              1             0             1 
    49 u_2_2_4      *              0             0             1 
    50 u_1_2_5      *              0             0             1 
    51 u_2_2_5      *              0             0             1 
    52 u_1_2_6      *              0             0             1 
    53 u_2_2_6      *              1             0             1 
    54 u_1_3_1      *              0             0             1 
    55 u_2_3_1      *              1             0             1 
    56 u_1_3_2      *              0             0             1 
    57 u_2_3_2      *              1             0             1 
    58 u_1_3_5      *              0             0             1 
    59 u_2_3_5      *              1             0             1 
    60 u_1_3_6      *              0             0             1 
    61 u_2_3_6      *              1             0             1 
    62 u_1_4_1      *              1             0             1 
    63 u_2_4_1      *              1             0             1 
    64 u_1_4_2      *              0             0             1 
    65 u_2_4_2      *              1             0             1 
    66 u_1_4_5      *              0             0             1 
    67 u_2_4_5      *              1             0             1 
    68 u_1_4_6      *              0             0             1 
    69 u_2_4_6      *              1             0             1 
    70 u_1_5_1      *              1             0             1 
    71 u_2_5_1      *              0             0             1 
    72 u_1_5_2      *              1             0             1 
    73 u_2_5_2      *              1             0             1 
    74 u_1_5_3      *              1             0             1 
    75 u_2_5_3      *              0             0             1 
    76 u_1_5_4      *              1             0             1 
    77 u_2_5_4      *              0             0             1 
    78 u_1_6_2      *              1             0             1 
    79 u_2_6_2      *              0             0             1 
    80 u_1_6_3      *              1             0             1 
    81 u_2_6_3      *              0             0             1 
    82 u_1_6_4      *              1             0             1 
    83 u_2_6_4      *              0             0             1 
    84 u_1_6_7      *              1             0             1 
    85 u_2_6_7      *              0             0             1 
    86 u_1_7_1      *              0             0             1 
    87 u_2_7_1      *              1             0             1 
    88 u_1_7_6      *              0             0             1 
    89 u_2_7_6      *              1             0             1 

Integer feasibility conditions:

KKT.PE: max.abs.err = 1.14e-13 on row 103
        max.rel.err = 1.10e-16 on row 104
        High quality

KKT.PB: max.abs.err = 5.68e-14 on row 30
        max.rel.err = 1.58e-15 on row 227
        High quality

End of output
